6104,3850,21380,13644,23007,13135,9133,16392,17058,13192,23739,10434,14283,21227,2785,6905,18393,23906,23431,6880,17548,21022,16528,25133,16111,16112,21030,6090,6846,3127,20855,24310,15552,25601,25586,24259,17413,2601,15903,25894,16159,6776,4705,5283,18848,5760,169,15940,15327,15305,20420,26101,14899,12071,22536,21942,14626,22049,13727,21081,17463,2050,8690,7981,19783,22661,6953,3150,8996,5675,23180,7834,8275,6104